
Gurobi 12.0.2 (win64) logging started Mon Nov 17 19:49:43 2025

Set parameter LogFile to value "resultados DATA_1_n20m10b2d1\instancia_1_log.txt"
Set parameter TimeLimit to value 3600
Gurobi Optimizer version 12.0.2 build v12.0.2rc0 (win64 - Windows 10.0 (19045.2))

CPU model: Intel(R) Core(TM) i5-6300U CPU @ 2.40GHz, instruction set [SSE2|AVX|AVX2]
Thread count: 2 physical cores, 4 logical processors, using up to 4 threads

Non-default parameters:
TimeLimit  3600

Optimize a model with 5842 rows, 31715 columns and 3597744 nonzeros
Model fingerprint: 0xf68ced94
Variable types: 0 continuous, 31715 integer (31715 binary)
Coefficient statistics:
  Matrix range     [1e+00, 1e+00]
  Objective range  [3e-03, 5e-02]
  Bounds range     [1e+00, 1e+00]
  RHS range        [1e+00, 2e+02]
Found heuristic solution: objective 0.9817500
Presolve removed 0 rows and 6034 columns (presolve time = 5s)...
Presolve removed 0 rows and 6034 columns (presolve time = 10s)...
Presolve removed 0 rows and 6034 columns (presolve time = 15s)...
Presolve removed 0 rows and 6034 columns (presolve time = 20s)...
Presolve removed 0 rows and 6034 columns (presolve time = 25s)...
Presolve removed 0 rows and 6034 columns (presolve time = 30s)...
Presolve removed 0 rows and 6034 columns (presolve time = 35s)...
Presolve removed 0 rows and 6034 columns (presolve time = 40s)...
Presolve removed 0 rows and 6034 columns (presolve time = 45s)...
Presolve removed 0 rows and 6034 columns
Presolve time: 46.51s
Presolved: 5842 rows, 25681 columns, 2837257 nonzeros
Found heuristic solution: objective 0.9480000
Variable types: 0 continuous, 25681 integer (25681 binary)
Deterministic concurrent LP optimizer: dual simplex and barrier
Showing barrier log only...

Root barrier log...

Ordering time: 0.04s

Barrier statistics:
 AA' NZ     : 2.307e+05
 Factor NZ  : 2.669e+05 (roughly 4 MB of memory)
 Factor Ops : 1.262e+08 (less than 1 second per iteration)
 Threads    : 1

                  Objective                Residual
Iter       Primal          Dual         Primal    Dual     Compl     Time
   0   7.74751943e+02  1.10637369e+00  2.74e+03 6.38e-04  1.13e-01    50s
   1   3.63420375e+01  6.86692500e+00  1.35e+02 2.03e-03  6.66e-03    50s
   2   6.92469742e+00  4.54376261e+00  2.17e+01 4.35e-04  1.44e-03    50s
   3   3.24314265e+00  3.28039413e+00  8.23e+00 2.18e-04  6.66e-04    50s
   4   2.30830084e+00  2.34925569e+00  4.90e+00 1.16e-04  4.07e-04    50s
   5   1.69889214e+00  2.31805241e+00  2.65e+00 7.87e-05  3.00e-04    51s
   6   9.63538563e-01  1.65030565e+00  4.73e-02 1.41e-05  9.60e-05    51s
   7   9.84143316e-01  1.06868878e+00  2.36e-03 0.00e+00  1.12e-05    51s
   8   9.97100069e-01  1.00811912e+00  5.18e-05 0.00e+00  1.44e-06    51s
   9   9.98565899e-01  1.00364647e+00  0.00e+00 0.00e+00  6.61e-07    52s
  10   9.99542743e-01  1.00238653e+00  0.00e+00 0.00e+00  3.67e-07    52s
  11   9.99872148e-01  1.00113249e+00  0.00e+00 0.00e+00  1.63e-07    52s
  12   9.99993450e-01  1.00015532e+00  0.00e+00 0.00e+00  2.09e-08    52s
  13   9.99999967e-01  1.00000016e+00  0.00e+00 3.03e-16  2.45e-11    52s
  14   1.00000000e+00  1.00000000e+00  0.00e+00 2.37e-16  2.45e-14    52s

Barrier solved model in 14 iterations and 52.52 seconds (15.99 work units)
Optimal objective 1.00000000e+00


Root crossover log...

      49 DPushes remaining with DInf 0.0000000e+00                53s
       0 DPushes remaining with DInf 0.0000000e+00                53s

    2781 PPushes remaining with PInf 0.0000000e+00                53s
     870 PPushes remaining with PInf 0.0000000e+00                55s
       0 PPushes remaining with PInf 0.0000000e+00                56s

  Push phase complete: Pinf 0.0000000e+00, Dinf 1.0769163e-14     56s


Root simplex log...

Iteration    Objective       Primal Inf.    Dual Inf.      Time
    2833    1.0000000e+00   0.000000e+00   0.000000e+00     56s
Concurrent spin time: 0.02s

Solved with barrier

Use crossover to convert LP symmetric solution to basic solution...

Root crossover log...

    2853 variables added to crossover basis                       61s
    3336 variables added to crossover basis                       65s
    3667 variables added to crossover basis                       70s
    3848 variables added to crossover basis                       75s
    4060 variables added to crossover basis                       80s
    4150 variables added to crossover basis                       85s

Restart crossover...

    2833 variables added to crossover basis                      102s
    2854 variables added to crossover basis                      106s
    3216 variables added to crossover basis                      110s
    3427 variables added to crossover basis                      115s
    3547 variables added to crossover basis                      121s
    3579 variables added to crossover basis                      125s
    3638 variables added to crossover basis                      130s
    3698 variables added to crossover basis                      136s
    3758 variables added to crossover basis                      140s
    3828 variables added to crossover basis                      145s
    3898 variables added to crossover basis                      151s
    3958 variables added to crossover basis                      156s
    4038 variables added to crossover basis                      160s
    4128 variables added to crossover basis                      166s
    4207 variables added to crossover basis                      170s
    4307 variables added to crossover basis                      175s
    4417 variables added to crossover basis                      180s
    4477 variables added to crossover basis                      189s
    4487 variables added to crossover basis                      192s
    4507 variables added to crossover basis                      198s
    4527 variables added to crossover basis                      201s
    4761 variables added to crossover basis                      205s
    4936 variables added to crossover basis                      210s
    5340 variables added to crossover basis                      215s

     340 DPushes remaining with DInf 0.0000000e+00               219s
     339 DPushes remaining with DInf 0.0000000e+00               223s
     263 DPushes remaining with DInf 0.0000000e+00               236s
     193 DPushes remaining with DInf 0.0000000e+00               248s
     116 DPushes remaining with DInf 0.0000000e+00               253s
      38 DPushes remaining with DInf 0.0000000e+00               257s
       0 DPushes remaining with DInf 0.0000000e+00               260s

     369 PPushes remaining with PInf 0.0000000e+00               260s
     290 PPushes remaining with PInf 0.0000000e+00               265s
     125 PPushes remaining with PInf 0.0000000e+00               272s
      48 PPushes remaining with PInf 0.0000000e+00               276s
       0 PPushes remaining with PInf 0.0000000e+00               278s

  Push phase complete: Pinf 0.0000000e+00, Dinf 1.1551620e-09    278s


Root simplex log...

Iteration    Objective       Primal Inf.    Dual Inf.      Time
    3544    1.0000000e+00   0.000000e+00   0.000000e+00    280s

Root relaxation: objective 1.000000e+00, 3544 iterations, 232.04 seconds (34.24 work units)

    Nodes    |    Current Node    |     Objective Bounds      |     Work
 Expl Unexpl |  Obj  Depth IntInf | Incumbent    BestBd   Gap | It/Node Time

     0     0    1.00000    0 5122    0.98175    1.00000  1.86%     -  616s
     0     0    1.00000    0 5122    0.98175    1.00000  1.86%     - 1056s
H    0     0                       0.9930000    1.00000  0.70%     - 1720s
     0     2    1.00000    0 5122    0.99300    1.00000  0.70%     - 2152s

Explored 1 nodes (20503 simplex iterations) in 3600.19 seconds (3233.79 work units)
Thread count was 4 (of 4 available processors)

Solution count 3: 0.993 0.98175 0.948 

Time limit reached
Best objective 9.930000000000e-01, best bound 1.000000000000e+00, gap 0.7049%

Gurobi 12.0.2 (win64) logging started Mon Nov 17 23:26:41 2025

Set parameter LogFile to value "resultados DATA_1_n20m10b2d1\instancia_1_log.txt"
Set parameter TimeLimit to value 3600
Gurobi Optimizer version 12.0.2 build v12.0.2rc0 (win64 - Windows 10.0 (19045.2))

CPU model: Intel(R) Core(TM) i5-6300U CPU @ 2.40GHz, instruction set [SSE2|AVX|AVX2]
Thread count: 2 physical cores, 4 logical processors, using up to 4 threads

Non-default parameters:
TimeLimit  3600

Optimize a model with 5842 rows, 31715 columns and 3597744 nonzeros
Model fingerprint: 0xf68ced94
Variable types: 0 continuous, 31715 integer (31715 binary)
Coefficient statistics:
  Matrix range     [1e+00, 1e+00]
  Objective range  [3e-03, 5e-02]
  Bounds range     [1e+00, 1e+00]
  RHS range        [1e+00, 2e+02]
Found heuristic solution: objective 0.9817500
Presolve removed 0 rows and 6034 columns (presolve time = 5s)...
Presolve removed 0 rows and 6034 columns (presolve time = 10s)...
Presolve removed 0 rows and 6034 columns (presolve time = 15s)...
Presolve removed 0 rows and 6034 columns (presolve time = 20s)...
Presolve removed 0 rows and 6034 columns (presolve time = 25s)...
Presolve removed 0 rows and 6034 columns
Presolve time: 29.48s
Presolved: 5842 rows, 25681 columns, 2837257 nonzeros
Found heuristic solution: objective 0.9480000
Variable types: 0 continuous, 25681 integer (25681 binary)
Deterministic concurrent LP optimizer: dual simplex and barrier
Showing barrier log only...

Root barrier log...

Ordering time: 0.03s

Barrier statistics:
 AA' NZ     : 2.307e+05
 Factor NZ  : 2.669e+05 (roughly 4 MB of memory)
 Factor Ops : 1.262e+08 (less than 1 second per iteration)
 Threads    : 1

                  Objective                Residual
Iter       Primal          Dual         Primal    Dual     Compl     Time
   0   7.74751943e+02  1.10637369e+00  2.74e+03 6.38e-04  1.13e-01    31s
   1   3.63420375e+01  6.86692500e+00  1.35e+02 2.03e-03  6.66e-03    31s
   2   6.92469742e+00  4.54376261e+00  2.17e+01 4.35e-04  1.44e-03    31s
   3   3.24314265e+00  3.28039413e+00  8.23e+00 2.18e-04  6.66e-04    31s
   4   2.30830084e+00  2.34925569e+00  4.90e+00 1.16e-04  4.07e-04    32s
   5   1.69889214e+00  2.31805241e+00  2.65e+00 7.87e-05  3.00e-04    32s
   6   9.63538563e-01  1.65030565e+00  4.73e-02 1.41e-05  9.60e-05    32s
   7   9.84143316e-01  1.06868878e+00  2.36e-03 0.00e+00  1.12e-05    32s
   8   9.97100069e-01  1.00811912e+00  5.18e-05 0.00e+00  1.44e-06    32s
   9   9.98565899e-01  1.00364647e+00  0.00e+00 0.00e+00  6.61e-07    32s
  10   9.99542743e-01  1.00238653e+00  0.00e+00 0.00e+00  3.67e-07    32s
  11   9.99872148e-01  1.00113249e+00  0.00e+00 0.00e+00  1.63e-07    32s
  12   9.99993450e-01  1.00015532e+00  0.00e+00 0.00e+00  2.09e-08    32s
  13   9.99999967e-01  1.00000016e+00  0.00e+00 3.03e-16  2.45e-11    32s
  14   1.00000000e+00  1.00000000e+00  0.00e+00 2.37e-16  2.45e-14    32s

Barrier solved model in 14 iterations and 32.14 seconds (15.99 work units)
Optimal objective 1.00000000e+00


Root crossover log...

      49 DPushes remaining with DInf 0.0000000e+00                32s
       0 DPushes remaining with DInf 0.0000000e+00                32s

    2781 PPushes remaining with PInf 0.0000000e+00                32s
       0 PPushes remaining with PInf 0.0000000e+00                33s

  Push phase complete: Pinf 0.0000000e+00, Dinf 1.0769163e-14     33s


Root simplex log...

Iteration    Objective       Primal Inf.    Dual Inf.      Time
    2833    1.0000000e+00   0.000000e+00   0.000000e+00     33s
Concurrent spin time: 0.00s

Solved with barrier

Use crossover to convert LP symmetric solution to basic solution...

Root crossover log...

    4090 variables added to crossover basis                       40s

Restart crossover...

    2674 variables added to crossover basis                       45s
    3547 variables added to crossover basis                       50s
    3768 variables added to crossover basis                       55s
    4058 variables added to crossover basis                       60s
    4447 variables added to crossover basis                       65s

     340 DPushes remaining with DInf 0.0000000e+00                71s
     193 DPushes remaining with DInf 0.0000000e+00                75s
       0 DPushes remaining with DInf 0.0000000e+00                81s

     369 PPushes remaining with PInf 0.0000000e+00                81s
     204 PPushes remaining with PInf 0.0000000e+00                85s
       0 PPushes remaining with PInf 0.0000000e+00                90s

  Push phase complete: Pinf 0.0000000e+00, Dinf 1.1551620e-09     90s


Root simplex log...

Iteration    Objective       Primal Inf.    Dual Inf.      Time
    3544    1.0000000e+00   0.000000e+00   0.000000e+00     90s

Root relaxation: objective 1.000000e+00, 3544 iterations, 60.30 seconds (34.24 work units)

    Nodes    |    Current Node    |     Objective Bounds      |     Work
 Expl Unexpl |  Obj  Depth IntInf | Incumbent    BestBd   Gap | It/Node Time

     0     0    1.00000    0 5122    0.98175    1.00000  1.86%     -  207s
     0     0    1.00000    0 5122    0.98175    1.00000  1.86%     -  428s
H    0     0                       0.9930000    1.00000  0.70%     -  798s
     0     2    1.00000    0 5122    0.99300    1.00000  0.70%     - 1037s

Explored 1 nodes (20503 simplex iterations) in 12570.74 seconds (2972.67 work units)
Thread count was 4 (of 4 available processors)

Solution count 3: 0.993 0.98175 0.948 

Time limit reached
Best objective 9.930000000000e-01, best bound 1.000000000000e+00, gap 0.7049%
